c description: Tseitin formula on , with odd charge
c generator: CNFgen (0.9.0)
c copyright: (C) 2012-2020 Massimo Lauria <massimo.lauria@uniroma1.it>
c url: https://massimolauria.net/cnfgen
c
p cnf 40 284
1 2 3 4 5 6 0
1 2 3 4 -5 -6 0
1 2 3 -4 5 -6 0
1 2 3 -4 -5 6 0
1 2 -3 4 5 -6 0
1 2 -3 4 -5 6 0
1 2 -3 -4 5 6 0
1 2 -3 -4 -5 -6 0
1 -2 3 4 5 -6 0
1 -2 3 4 -5 6 0
1 -2 3 -4 5 6 0
1 -2 3 -4 -5 -6 0
1 -2 -3 4 5 6 0
1 -2 -3 4 -5 -6 0
1 -2 -3 -4 5 -6 0
1 -2 -3 -4 -5 6 0
-1 2 3 4 5 -6 0
-1 2 3 4 -5 6 0
-1 2 3 -4 5 6 0
-1 2 3 -4 -5 -6 0
-1 2 -3 4 5 6 0
-1 2 -3 4 -5 -6 0
-1 2 -3 -4 5 -6 0
-1 2 -3 -4 -5 6 0
-1 -2 3 4 5 6 0
-1 -2 3 4 -5 -6 0
-1 -2 3 -4 5 -6 0
-1 -2 3 -4 -5 6 0
-1 -2 -3 4 5 -6 0
-1 -2 -3 4 -5 6 0
-1 -2 -3 -4 5 6 0
-1 -2 -3 -4 -5 -6 0
7 8 9 10 -11 0
7 8 9 -10 11 0
7 8 -9 10 11 0
7 8 -9 -10 -11 0
7 -8 9 10 11 0
7 -8 9 -10 -11 0
7 -8 -9 10 -11 0
7 -8 -9 -10 11 0
-7 8 9 10 11 0
-7 8 9 -10 -11 0
-7 8 -9 10 -11 0
-7 8 -9 -10 11 0
-7 -8 9 10 -11 0
-7 -8 9 -10 11 0
-7 -8 -9 10 11 0
-7 -8 -9 -10 -11 0
12 13 -14 0
12 -13 14 0
-12 13 14 0
-12 -13 -14 0
-15 0
1 12 16 17 18 -19 0
1 12 16 17 -18 19 0
1 12 16 -17 18 19 0
1 12 16 -17 -18 -19 0
1 12 -16 17 18 19 0
1 12 -16 17 -18 -19 0
1 12 -16 -17 18 -19 0
1 12 -16 -17 -18 19 0
1 -12 16 17 18 19 0
1 -12 16 17 -18 -19 0
1 -12 16 -17 18 -19 0
1 -12 16 -17 -18 19 0
1 -12 -16 17 18 -19 0
1 -12 -16 17 -18 19 0
1 -12 -16 -17 18 19 0
1 -12 -16 -17 -18 -19 0
-1 12 16 17 18 19 0
-1 12 16 17 -18 -19 0
-1 12 16 -17 18 -19 0
-1 12 16 -17 -18 19 0
-1 12 -16 17 18 -19 0
-1 12 -16 17 -18 19 0
-1 12 -16 -17 18 19 0
-1 12 -16 -17 -18 -19 0
-1 -12 16 17 18 -19 0
-1 -12 16 17 -18 19 0
-1 -12 16 -17 18 19 0
-1 -12 16 -17 -18 -19 0
-1 -12 -16 17 18 19 0
-1 -12 -16 17 -18 -19 0
-1 -12 -16 -17 18 -19 0
-1 -12 -16 -17 -18 19 0
2 7 20 21 22 -23 0
2 7 20 21 -22 23 0
2 7 20 -21 22 23 0
2 7 20 -21 -22 -23 0
2 7 -20 21 22 23 0
2 7 -20 21 -22 -23 0
2 7 -20 -21 22 -23 0
2 7 -20 -21 -22 23 0
2 -7 20 21 22 23 0
2 -7 20 21 -22 -23 0
2 -7 20 -21 22 -23 0
2 -7 20 -21 -22 23 0
2 -7 -20 21 22 -23 0
2 -7 -20 21 -22 23 0
2 -7 -20 -21 22 23 0
2 -7 -20 -21 -22 -23 0
-2 7 20 21 22 23 0
-2 7 20 21 -22 -23 0
-2 7 20 -21 22 -23 0
-2 7 20 -21 -22 23 0
-2 7 -20 21 22 -23 0
-2 7 -20 21 -22 23 0
-2 7 -20 -21 22 23 0
-2 7 -20 -21 -22 -23 0
-2 -7 20 21 22 -23 0
-2 -7 20 21 -22 23 0
-2 -7 20 -21 22 23 0
-2 -7 20 -21 -22 -23 0
-2 -7 -20 21 22 23 0
-2 -7 -20 21 -22 -23 0
-2 -7 -20 -21 22 -23 0
-2 -7 -20 -21 -22 23 0
24 -25 0
-24 25 0
16 20 26 27 28 -29 0
16 20 26 27 -28 29 0
16 20 26 -27 28 29 0
16 20 26 -27 -28 -29 0
16 20 -26 27 28 29 0
16 20 -26 27 -28 -29 0
16 20 -26 -27 28 -29 0
16 20 -26 -27 -28 29 0
16 -20 26 27 28 29 0
16 -20 26 27 -28 -29 0
16 -20 26 -27 28 -29 0
16 -20 26 -27 -28 29 0
16 -20 -26 27 28 -29 0
16 -20 -26 27 -28 29 0
16 -20 -26 -27 28 29 0
16 -20 -26 -27 -28 -29 0
-16 20 26 27 28 29 0
-16 20 26 27 -28 -29 0
-16 20 26 -27 28 -29 0
-16 20 26 -27 -28 29 0
-16 20 -26 27 28 -29 0
-16 20 -26 27 -28 29 0
-16 20 -26 -27 28 29 0
-16 20 -26 -27 -28 -29 0
-16 -20 26 27 28 -29 0
-16 -20 26 27 -28 29 0
-16 -20 26 -27 28 29 0
-16 -20 26 -27 -28 -29 0
-16 -20 -26 27 28 29 0
-16 -20 -26 27 -28 -29 0
-16 -20 -26 -27 28 -29 0
-16 -20 -26 -27 -28 29 0
13 17 26 30 31 -32 0
13 17 26 30 -31 32 0
13 17 26 -30 31 32 0
13 17 26 -30 -31 -32 0
13 17 -26 30 31 32 0
13 17 -26 30 -31 -32 0
13 17 -26 -30 31 -32 0
13 17 -26 -30 -31 32 0
13 -17 26 30 31 32 0
13 -17 26 30 -31 -32 0
13 -17 26 -30 31 -32 0
13 -17 26 -30 -31 32 0
13 -17 -26 30 31 -32 0
13 -17 -26 30 -31 32 0
13 -17 -26 -30 31 32 0
13 -17 -26 -30 -31 -32 0
-13 17 26 30 31 32 0
-13 17 26 30 -31 -32 0
-13 17 26 -30 31 -32 0
-13 17 26 -30 -31 32 0
-13 17 -26 30 31 -32 0
-13 17 -26 30 -31 32 0
-13 17 -26 -30 31 32 0
-13 17 -26 -30 -31 -32 0
-13 -17 26 30 31 -32 0
-13 -17 26 30 -31 32 0
-13 -17 26 -30 31 32 0
-13 -17 26 -30 -31 -32 0
-13 -17 -26 30 31 32 0
-13 -17 -26 30 -31 -32 0
-13 -17 -26 -30 31 -32 0
-13 -17 -26 -30 -31 32 0
8 15 -33 0
8 -15 33 0
-8 15 33 0
-8 -15 -33 0
27 34 35 36 -37 0
27 34 35 -36 37 0
27 34 -35 36 37 0
27 34 -35 -36 -37 0
27 -34 35 36 37 0
27 -34 35 -36 -37 0
27 -34 -35 36 -37 0
27 -34 -35 -36 37 0
-27 34 35 36 37 0
-27 34 35 -36 -37 0
-27 34 -35 36 -37 0
-27 34 -35 -36 37 0
-27 -34 35 36 -37 0
-27 -34 35 -36 37 0
-27 -34 -35 36 37 0
-27 -34 -35 -36 -37 0
9 28 30 34 -38 0
9 28 30 -34 38 0
9 28 -30 34 38 0
9 28 -30 -34 -38 0
9 -28 30 34 38 0
9 -28 30 -34 -38 0
9 -28 -30 34 -38 0
9 -28 -30 -34 38 0
-9 28 30 34 38 0
-9 28 30 -34 -38 0
-9 28 -30 34 -38 0
-9 28 -30 -34 38 0
-9 -28 30 34 -38 0
-9 -28 30 -34 38 0
-9 -28 -30 34 38 0
-9 -28 -30 -34 -38 0
3 10 24 35 -39 0
3 10 24 -35 39 0
3 10 -24 35 39 0
3 10 -24 -35 -39 0
3 -10 24 35 39 0
3 -10 24 -35 -39 0
3 -10 -24 35 -39 0
3 -10 -24 -35 39 0
-3 10 24 35 39 0
-3 10 24 -35 -39 0
-3 10 -24 35 -39 0
-3 10 -24 -35 39 0
-3 -10 24 35 -39 0
-3 -10 24 -35 39 0
-3 -10 -24 35 39 0
-3 -10 -24 -35 -39 0
4 14 21 29 -36 0
4 14 21 -29 36 0
4 14 -21 29 36 0
4 14 -21 -29 -36 0
4 -14 21 29 36 0
4 -14 21 -29 -36 0
4 -14 -21 29 -36 0
4 -14 -21 -29 36 0
-4 14 21 29 36 0
-4 14 21 -29 -36 0
-4 14 -21 29 -36 0
-4 14 -21 -29 36 0
-4 -14 21 29 -36 0
-4 -14 21 -29 36 0
-4 -14 -21 29 36 0
-4 -14 -21 -29 -36 0
-22 0
25 33 -37 0
25 -33 37 0
-25 33 37 0
-25 -33 -37 0
5 18 23 31 -40 0
5 18 23 -31 40 0
5 18 -23 31 40 0
5 18 -23 -31 -40 0
5 -18 23 31 40 0
5 -18 23 -31 -40 0
5 -18 -23 31 -40 0
5 -18 -23 -31 40 0
-5 18 23 31 40 0
-5 18 23 -31 -40 0
-5 18 -23 31 -40 0
-5 18 -23 -31 40 0
-5 -18 23 31 -40 0
-5 -18 23 -31 40 0
-5 -18 -23 31 40 0
-5 -18 -23 -31 -40 0
11 32 -40 0
11 -32 40 0
-11 32 40 0
-11 -32 -40 0
6 19 38 -39 0
6 19 -38 39 0
6 -19 38 39 0
6 -19 -38 -39 0
-6 19 38 39 0
-6 19 -38 -39 0
-6 -19 38 -39 0
-6 -19 -38 39 0